c Sudoku solution
p cnf 729 0
278 0
285 0
327 0
333 0
345 0
462 0
486 0
532 0
557 0
589 0
591 0
638 0
498 0
649 0
664 0
675 0
697 0
682 0
794 0
826 0
837 0
417 0
855 0
995 0
565 0
548 0
656 0
516 0
872 0
912 0
959 0
966 0
776 0
899 0
396 0
352 0
742 0
987 0
767 0
928 0
247 0
146 0
236 0
177 0
379 0
971 0
934 0
844 0
943 0
441 0
453 0
474 0
573 0
524 0
813 0
783 0
888 0
758 0
861 0
611 0
623 0
368 0
118 0
314 0
219 0
169 0
263 0
292 0
193 0
122 0
221 0
135 0
254 0
151 0
184 0
381 0
715 0
729 0
731 0
425 0
439 0
